webassembly/ejemplos_dzn/11/folder11_json_13.dzn
TERM = { '.', 's(2)', 's(4)', 'in_1', 'local_0', 'local_1', 'in_2', 'in_4', 'in_3', 's(1)', 's(0)', 'in_5', 's(3)', 'in_0'};
null = '.';
s = 11;
n = 11;
ndeps = 3;
max_registers_sz = 5;
NR = 2;
registers = [|'local_0', 's(0)', |'local_1', 's(0)'|];
dependencies = [|'i32.store_6', 'i32.store8_7', |'i32.store8_7', 'i32.load16_u_8', |'i32.store8_7', 'i32.load16_u_9'|];
GET_ENUM = { GET1, GET2, GET3, GET4, GET5, GET6, GET7};
SET_ENUM = { SET1, SET2, SET3, SET4, SET5, SET6, SET7};
TEE_ENUM = { TEE1, TEE2, TEE3, TEE4, TEE5, TEE6, TEE7};
N = 7;
OP = { 'i32.add_0', 'i32.const_0', 'i32.sub_0', 'i32.store_6', 'i32.store8_7', 'i32.load16_u_8', 'i32.load16_u_9' };
in_ops = [2, 0, 2, 2, 2, 1, 1 ];
out_ops = [1, 1, 1, 0, 0, 1, 1 ];
in1 = ['s(2)', '.', 'in_0', 's(4)', 'in_2', 'in_4', 's(1)' ];
in2 = ['in_5', '.', 'in_1', 's(0)', 'in_3', '.', '.' ];
in3 = ['.', '.', '.', '.', '.', '.', '.' ];
out1 = ['s(3)', 's(4)', 's(0)', '.', '.', 's(1)', 's(2)' ];
out2 = ['.', '.', '.', '.', '.', '.', '.' ];
out3 = ['.', '.', '.', '.', '.', '.', '.' ];
comm = [true, false, false, false, false, false, false ];
gas = [1, 1, 1, 1, 1, 1, 1 ];
sz = [1, 1, 1, 1, 1, 1, 1 ];
stor = [false, false, false, true, true, false, false ];
lb = [ 1, 1, 1, 1, 1, 1, 1 ];
ub = [ 11, 11, 11, 11, 11, 11, 11 ];
startstack = [ 'in_0', 'in_1', 'in_2', 'in_3', 'in_4', 'in_5', null, null, null, null, null ];
endstack = [ 's(3)', null, null, null, null, null, null, null, null, null, null ];
